
  32    4
  10   10   10   10

   0   0   0   0   0   1 2 
   8   0   1   1   1   1 3 
   5   0   8   5   2   2 6 4 
   2   1   3   6   0   1 5 
   4   3   0   4   8   1 7 
   9   2   0   4   7   1 8 
   9   0   3   4   5   1 9 
   1   4   3   0   7   1 9 
  10   4   0   4   4   2 27 10 
   7   5   5   0   1   1 11 
   3   0   4   2   2   2 20 12 
   1   5   0   4   5   1 13 
   1   4   0   3   6   2 31 14 
   6   5   4   0   4   3 26 18 15 
   5   5   3   0   4   1 16 
  10   2   0   6   5   2 19 17 
   5   0   4   5   5   3 29 22 21 
   3   6   0   2   2   2 25 22 
   1   1   0   2   2   2 29 22 
   3   2   0   4   2   3 30 29 28 
   6   4   3   0   4   1 23 
   1   4   0   4   2   2 30 28 
   7   6   0   5   4   1 24 
   7   6   0   3   6   1 28 
   1   0   3   4   3   1 29 
   4   4   5   4   0   1 29 
   6   0   3   5   3   1 31 
   5   9   6   0   3   1 32
   3   2   6   3   0   1 32
  10   5   0   4   6   1 32
   3   3   0   8   5   1 32
   0   0   0   0   0   0 
